* ENCODING=ISO-8859-1
NAME          CPLEX
ROWS
 N  obj1    
 G  c1      
 G  c2      
 G  c3      
 G  c4      
 G  c5      
 G  c6      
 G  c7      
 G  c8      
 G  c9      
 G  c10     
 G  c11     
 G  c12     
 G  c13     
 G  c14     
 G  c15     
 G  c16     
 G  c17     
 G  c18     
 G  c19     
 G  c20     
 G  c21     
 G  c22     
 G  c23     
 G  c24     
 G  c25     
 G  c26     
 G  c27     
 G  c28     
 G  c29     
 G  c30     
COLUMNS
    MARK0000  'MARKER'                 'INTORG'
    x1        obj1                            1
    x1        c25                           946
    x1        c29                           788
    x1        c30                           451
    x2        obj1                            1
    x2        c6                            687
    x2        c9                            512
    x2        c11                           765
    x2        c14                           581
    x2        c20                           900
    x2        c25                           284
    x3        obj1                            1
    x3        c1                            861
    x3        c17                           622
    x3        c28                           757
    x3        c29                           126
    x4        obj1                            1
    x4        c3                            806
    x4        c20                           512
    x5        obj1                            1
    x5        c2                            148
    x5        c23                           761
    x6        obj1                            1
    x6        c1                            722
    x6        c12                           791
    x6        c13                           228
    x6        c17                           726
    x7        obj1                            1
    x7        c4                            258
    x7        c5                            160
    x7        c10                           768
    x8        obj1                            1
    x8        c3                            146
    x8        c21                           876
    x9        obj1                            1
    x9        c5                            874
    x9        c20                           139
    x9        c21                           820
    x10       obj1                            1
    x10       c3                            509
    x10       c6                            569
    x10       c8                            414
    x10       c27                           259
    x11       obj1                            1
    x11       c13                           103
    x11       c24                           120
    x11       c30                           323
    x12       obj1                            1
    x12       c5                            817
    x12       c16                           995
    x13       obj1                            1
    x13       c16                           165
    x13       c18                           992
    x13       c19                           219
    x13       c23                           755
    x14       obj1                            1
    x14       c3                            200
    x14       c6                            733
    x15       obj1                            1
    x15       c1                            893
    x15       c5                            565
    x15       c10                           339
    x15       c21                           185
    x15       c23                           950
    x15       c24                           189
    x15       c25                           625
    x15       c28                           151
    x16       obj1                            1
    x16       c19                           311
    x17       obj1                            1
    x17       c28                           181
    x17       c30                           259
    x18       obj1                            1
    x18       c13                           908
    x19       obj1                            1
    x19       c5                            108
    x19       c12                           357
    x19       c14                           598
    x19       c27                           488
    x20       obj1                            1
    x20       c14                           131
    x20       c18                           994
    x21       obj1                            1
    x21       c7                            617
    x21       c14                           356
    x22       obj1                            1
    x22       c5                            426
    x22       c10                           971
    x22       c29                           333
    x23       obj1                            1
    x23       c8                            452
    x23       c11                           975
    x23       c22                           444
    x24       obj1                            1
    x24       c1                            102
    x24       c20                           933
    x24       c27                           625
    x24       c28                           979
    x25       obj1                            1
    x26       obj1                            1
    x26       c13                           250
    x27       obj1                            1
    x27       c7                            879
    x27       c19                           148
    x27       c23                           823
    x28       obj1                            1
    x28       c14                           832
    x29       obj1                            1
    x29       c3                            416
    x29       c6                            458
    x29       c7                            218
    x29       c23                           803
    x30       obj1                            1
    x30       c8                            145
    x30       c15                           322
    x30       c20                           612
    x30       c27                           524
    x31       obj1                            1
    x31       c25                           427
    x31       c28                           350
    x32       obj1                            1
    x32       c8                            179
    x33       obj1                            1
    x33       c5                            791
    x33       c10                           168
    x33       c15                           119
    x33       c21                           578
    x34       obj1                            1
    x34       c10                           346
    x34       c16                           860
    x34       c19                           588
    x35       obj1                            1
    x35       c8                            558
    x35       c29                           496
    x36       obj1                            1
    x36       c9                            202
    x36       c27                           999
    x37       obj1                            1
    x37       c10                           134
    x37       c19                           915
    x37       c22                           801
    x37       c26                           159
    x38       obj1                            1
    x38       c28                           903
    x39       obj1                            1
    x39       c9                            518
    x39       c10                           844
    x39       c11                           727
    x40       obj1                            1
    x40       c3                            590
    x40       c17                           180
    x40       c19                           114
    x40       c24                           471
    x40       c26                           215
    x41       obj1                            1
    x41       c2                            947
    x41       c4                            585
    x42       obj1                            1
    x42       c10                           414
    x42       c23                           560
    x43       obj1                            1
    x43       c14                           637
    x43       c23                           975
    x43       c29                           467
    x44       obj1                            1
    x44       c4                            790
    x44       c11                           592
    x44       c14                           968
    x44       c22                           346
    x44       c23                           187
    x44       c24                           711
    x45       obj1                            1
    x45       c20                           800
    x46       obj1                            1
    x46       c18                           466
    x46       c19                           171
    x46       c23                           490
    x47       obj1                            1
    x47       c4                            884
    x47       c14                           290
    x47       c17                           607
    x47       c28                           997
    x48       obj1                            1
    x49       obj1                            1
    x49       c6                            493
    x49       c26                           709
    x49       c29                           251
    x50       obj1                            1
    x50       c13                           417
    x50       c15                           141
    x50       c27                           581
    x51       obj1                            1
    x51       c2                            509
    x51       c8                            932
    x51       c11                           190
    x51       c22                           629
    x51       c25                           767
    x52       obj1                            1
    x52       c4                            137
    x52       c10                           293
    x52       c12                           756
    x52       c29                           694
    x53       obj1                            1
    x54       obj1                            1
    x55       obj1                            1
    x55       c5                            555
    x55       c6                            868
    x55       c18                           721
    x56       obj1                            1
    x56       c4                            199
    x56       c15                           189
    x56       c29                           212
    x57       obj1                            1
    x57       c4                            896
    x57       c25                           723
    x57       c26                           405
    x57       c29                           373
    x58       obj1                            1
    x58       c5                            384
    x58       c19                           371
    x58       c21                           220
    x58       c25                           730
    x58       c27                          1000
    x59       obj1                            1
    x59       c14                           691
    x59       c26                           552
    x60       obj1                            1
    x60       c28                           570
    MARK0001  'MARKER'                 'INTEND'
RHS
    rhs       c1                           1289
    rhs       c2                            802
    rhs       c3                           1334
    rhs       c4                           1875
    rhs       c5                           2340
    rhs       c6                           1904
    rhs       c7                            857
    rhs       c8                           1340
    rhs       c9                            616
    rhs       c10                          2139
    rhs       c11                          1625
    rhs       c12                           952
    rhs       c13                           953
    rhs       c14                          2542
    rhs       c15                           386
    rhs       c16                          1010
    rhs       c17                          1068
    rhs       c18                          1587
    rhs       c19                          1419
    rhs       c20                          1948
    rhs       c21                          1340
    rhs       c22                          1110
    rhs       c23                          3152
    rhs       c24                           746
    rhs       c25                          2251
    rhs       c26                          1020
    rhs       c27                          2238
    rhs       c28                          2444
    rhs       c29                          1870
    rhs       c30                           517
BOUNDS
 LI bnd       x1        0
 LI bnd       x2        0
 LI bnd       x3        0
 LI bnd       x4        0
 LI bnd       x5        0
 LI bnd       x6        0
 LI bnd       x7        0
 LI bnd       x8        0
 LI bnd       x9        0
 LI bnd       x10       0
 LI bnd       x11       0
 LI bnd       x12       0
 LI bnd       x13       0
 LI bnd       x14       0
 LI bnd       x15       0
 LI bnd       x16       0
 LI bnd       x17       0
 LI bnd       x18       0
 LI bnd       x19       0
 LI bnd       x20       0
 LI bnd       x21       0
 LI bnd       x22       0
 LI bnd       x23       0
 LI bnd       x24       0
 LI bnd       x25       0
 LI bnd       x26       0
 LI bnd       x27       0
 LI bnd       x28       0
 LI bnd       x29       0
 LI bnd       x30       0
 LI bnd       x31       0
 LI bnd       x32       0
 LI bnd       x33       0
 LI bnd       x34       0
 LI bnd       x35       0
 LI bnd       x36       0
 LI bnd       x37       0
 LI bnd       x38       0
 LI bnd       x39       0
 LI bnd       x40       0
 LI bnd       x41       0
 LI bnd       x42       0
 LI bnd       x43       0
 LI bnd       x44       0
 LI bnd       x45       0
 LI bnd       x46       0
 LI bnd       x47       0
 LI bnd       x48       0
 LI bnd       x49       0
 LI bnd       x50       0
 LI bnd       x51       0
 LI bnd       x52       0
 LI bnd       x53       0
 LI bnd       x54       0
 LI bnd       x55       0
 LI bnd       x56       0
 LI bnd       x57       0
 LI bnd       x58       0
 LI bnd       x59       0
 LI bnd       x60       0
ENDATA
